c nIsolatedPIs 0
c maxPI 12
p cnf 203 574
c gate 13 2 5 0
2 -13 0
5 -13 0
-2 -5 13 0
c gate 14 1 6 0
1 -14 0
6 -14 0
-1 -6 14 0
c gate 15 13 14 0
13 -15 0
14 -15 0
-13 -14 15 0
c gate 16 2 6 0
2 -16 0
6 -16 0
-2 -6 16 0
c gate 17 3 5 0
3 -17 0
5 -17 0
-3 -5 17 0
c gate 18 16 17 0
16 -18 0
17 -18 0
-16 -17 18 0
c gate 19 1 7 0
1 -19 0
7 -19 0
-1 -7 19 0
c gate 20 18 -19 0
18 -20 0
-19 -20 0
-18 19 20 0
c gate 21 -16 -17 0
-16 -21 0
-17 -21 0
16 17 21 0
c gate 22 19 -21 0
19 -22 0
-21 -22 0
-19 21 22 0
c gate 23 -19 21 0
-19 -23 0
21 -23 0
19 -21 23 0
c gate 24 -22 -23 0
-22 -24 0
-23 -24 0
22 23 24 0
c gate 25 -18 -24 0
-18 -25 0
-24 -25 0
18 24 25 0
c gate 26 -20 -25 0
-20 -26 0
-25 -26 0
20 25 26 0
c gate 27 15 26 0
15 -27 0
26 -27 0
-15 -26 27 0
c gate 28 1 8 0
1 -28 0
8 -28 0
-1 -8 28 0
c gate 29 2 7 0
2 -29 0
7 -29 0
-2 -7 29 0
c gate 30 3 6 0
3 -30 0
6 -30 0
-3 -6 30 0
c gate 31 4 5 0
4 -31 0
5 -31 0
-4 -5 31 0
c gate 32 -30 -31 0
-30 -32 0
-31 -32 0
30 31 32 0
c gate 33 30 31 0
30 -33 0
31 -33 0
-30 -31 33 0
c gate 34 -32 -33 0
-32 -34 0
-33 -34 0
32 33 34 0
c gate 35 -29 -34 0
-29 -35 0
-34 -35 0
29 34 35 0
c gate 36 29 34 0
29 -36 0
34 -36 0
-29 -34 36 0
c gate 37 -35 -36 0
-35 -37 0
-36 -37 0
35 36 37 0
c gate 38 -18 -22 0
-18 -38 0
-22 -38 0
18 22 38 0
c gate 39 37 -38 0
37 -39 0
-38 -39 0
-37 38 39 0
c gate 40 -37 38 0
-37 -40 0
38 -40 0
37 -38 40 0
c gate 41 -39 -40 0
-39 -41 0
-40 -41 0
39 40 41 0
c gate 42 28 41 0
28 -42 0
41 -42 0
-28 -41 42 0
c gate 43 -28 -41 0
-28 -43 0
-41 -43 0
28 41 43 0
c gate 44 -42 -43 0
-42 -44 0
-43 -44 0
42 43 44 0
c gate 45 27 44 0
27 -45 0
44 -45 0
-27 -44 45 0
c gate 46 -39 -42 0
-39 -46 0
-42 -46 0
39 42 46 0
c gate 47 2 8 0
2 -47 0
8 -47 0
-2 -8 47 0
c gate 48 -33 -36 0
-33 -48 0
-36 -48 0
33 36 48 0
c gate 49 4 6 0
4 -49 0
6 -49 0
-4 -6 49 0
c gate 50 3 7 0
3 -50 0
7 -50 0
-3 -7 50 0
c gate 51 -49 -50 0
-49 -51 0
-50 -51 0
49 50 51 0
c gate 52 49 50 0
49 -52 0
50 -52 0
-49 -50 52 0
c gate 53 -51 -52 0
-51 -53 0
-52 -53 0
51 52 53 0
c gate 54 -48 53 0
-48 -54 0
53 -54 0
48 -53 54 0
c gate 55 48 -53 0
48 -55 0
-53 -55 0
-48 53 55 0
c gate 56 -54 -55 0
-54 -56 0
-55 -56 0
54 55 56 0
c gate 57 -47 -56 0
-47 -57 0
-56 -57 0
47 56 57 0
c gate 58 47 56 0
47 -58 0
56 -58 0
-47 -56 58 0
c gate 59 -57 -58 0
-57 -59 0
-58 -59 0
57 58 59 0
c gate 60 46 -59 0
46 -60 0
-59 -60 0
-46 59 60 0
c gate 61 -46 59 0
-46 -61 0
59 -61 0
46 -59 61 0
c gate 62 -60 -61 0
-60 -62 0
-61 -62 0
60 61 62 0
c gate 63 45 62 0
45 -63 0
62 -63 0
-45 -62 63 0
c gate 64 -45 -62 0
-45 -64 0
-62 -64 0
45 62 64 0
c gate 65 -63 -64 0
-63 -65 0
-64 -65 0
63 64 65 0
c gate 66 -27 -44 0
-27 -66 0
-44 -66 0
27 44 66 0
c gate 67 -45 -66 0
-45 -67 0
-66 -67 0
45 66 67 0
c gate 68 12 67 0
12 -68 0
67 -68 0
-12 -67 68 0
c gate 69 -12 -67 0
-12 -69 0
-67 -69 0
12 67 69 0
c gate 70 -68 -69 0
-68 -70 0
-69 -70 0
68 69 70 0
c gate 71 -15 -26 0
-15 -71 0
-26 -71 0
15 26 71 0
c gate 72 -27 -71 0
-27 -72 0
-71 -72 0
27 71 72 0
c gate 73 11 72 0
11 -73 0
72 -73 0
-11 -72 73 0
c gate 74 -11 -72 0
-11 -74 0
-72 -74 0
11 72 74 0
c gate 75 -13 -14 0
-13 -75 0
-14 -75 0
13 14 75 0
c gate 76 10 -75 0
10 -76 0
-75 -76 0
-10 75 76 0
c gate 77 1 5 0
1 -77 0
5 -77 0
-1 -5 77 0
c gate 78 9 77 0
9 -78 0
77 -78 0
-9 -77 78 0
c gate 79 -10 75 0
-10 -79 0
75 -79 0
10 -75 79 0
c gate 80 -76 -79 0
-76 -80 0
-79 -80 0
76 79 80 0
c gate 81 78 80 0
78 -81 0
80 -81 0
-78 -80 81 0
c gate 82 -76 -81 0
-76 -82 0
-81 -82 0
76 81 82 0
c gate 83 -78 -80 0
-78 -83 0
-80 -83 0
78 80 83 0
c gate 84 -81 -83 0
-81 -84 0
-83 -84 0
81 83 84 0
c gate 85 15 -84 0
15 -85 0
-84 -85 0
-15 84 85 0
c gate 86 -82 -85 0
-82 -86 0
-85 -86 0
82 85 86 0
c gate 87 -74 86 0
-74 -87 0
86 -87 0
74 -86 87 0
c gate 88 -73 -87 0
-73 -88 0
-87 -88 0
73 87 88 0
c gate 89 70 -88 0
70 -89 0
-88 -89 0
-70 88 89 0
c gate 90 -68 -89 0
-68 -90 0
-89 -90 0
68 89 90 0
c gate 91 65 -90 0
65 -91 0
-90 -91 0
-65 90 91 0
c gate 92 -61 -63 0
-61 -92 0
-63 -92 0
61 63 92 0
c gate 93 -54 -58 0
-54 -93 0
-58 -93 0
54 58 93 0
c gate 94 3 8 0
3 -94 0
8 -94 0
-3 -8 94 0
c gate 95 4 7 0
4 -95 0
7 -95 0
-4 -7 95 0
c gate 96 -30 95 0
-30 -96 0
95 -96 0
30 -95 96 0
c gate 97 94 -96 0
94 -97 0
-96 -97 0
-94 96 97 0
c gate 98 -94 96 0
-94 -98 0
96 -98 0
94 -96 98 0
c gate 99 -97 -98 0
-97 -99 0
-98 -99 0
97 98 99 0
c gate 100 -93 -99 0
-93 -100 0
-99 -100 0
93 99 100 0
c gate 101 93 99 0
93 -101 0
99 -101 0
-93 -99 101 0
c gate 102 -100 -101 0
-100 -102 0
-101 -102 0
100 101 102 0
c gate 103 -92 102 0
-92 -103 0
102 -103 0
92 -102 103 0
c gate 104 92 -102 0
92 -104 0
-102 -104 0
-92 102 104 0
c gate 105 -103 -104 0
-103 -105 0
-104 -105 0
103 104 105 0
c gate 106 91 105 0
91 -106 0
105 -106 0
-91 -105 106 0
c gate 107 -91 -105 0
-91 -107 0
-105 -107 0
91 105 107 0
c gate 108 -106 -107 0
-106 -108 0
-107 -108 0
106 107 108 0
c gate 109 47 -51 0
47 -109 0
-51 -109 0
-47 51 109 0
c gate 110 99 -109 0
99 -110 0
-109 -110 0
-99 109 110 0
c gate 111 -99 109 0
-99 -111 0
109 -111 0
99 -109 111 0
c gate 112 -110 -111 0
-110 -112 0
-111 -112 0
110 111 112 0
c gate 113 -29 32 0
-29 -113 0
32 -113 0
29 -32 113 0
c gate 114 22 -113 0
22 -114 0
-113 -114 0
-22 113 114 0
c gate 115 -22 113 0
-22 -115 0
113 -115 0
22 -113 115 0
c gate 116 -114 -115 0
-114 -116 0
-115 -116 0
114 115 116 0
c gate 117 28 116 0
28 -117 0
116 -117 0
-28 -116 117 0
c gate 118 -114 -117 0
-114 -118 0
-117 -118 0
114 117 118 0
c gate 119 -47 51 0
-47 -119 0
51 -119 0
47 -51 119 0
c gate 120 -109 -119 0
-109 -120 0
-119 -120 0
109 119 120 0
c gate 121 -118 120 0
-118 -121 0
120 -121 0
118 -120 121 0
c gate 122 118 -120 0
118 -122 0
-120 -122 0
-118 120 122 0
c gate 123 -121 -122 0
-121 -123 0
-122 -123 0
121 122 123 0
c gate 124 -28 -116 0
-28 -124 0
-116 -124 0
28 116 124 0
c gate 125 -117 -124 0
-117 -125 0
-124 -125 0
117 124 125 0
c gate 126 12 125 0
12 -126 0
125 -126 0
-12 -125 126 0
c gate 127 11 24 0
11 -127 0
24 -127 0
-11 -24 127 0
c gate 128 -11 -24 0
-11 -128 0
-24 -128 0
11 24 128 0
c gate 129 -127 -128 0
-127 -129 0
-128 -129 0
127 128 129 0
c gate 130 -82 129 0
-82 -130 0
129 -130 0
82 -129 130 0
c gate 131 -127 -130 0
-127 -131 0
-130 -131 0
127 130 131 0
c gate 132 -12 -125 0
-12 -132 0
-125 -132 0
12 125 132 0
c gate 133 -126 -132 0
-126 -133 0
-132 -133 0
126 132 133 0
c gate 134 -131 133 0
-131 -134 0
133 -134 0
131 -133 134 0
c gate 135 -126 -134 0
-126 -135 0
-134 -135 0
126 134 135 0
c gate 136 123 -135 0
123 -136 0
-135 -136 0
-123 135 136 0
c gate 137 -121 -136 0
-121 -137 0
-136 -137 0
121 136 137 0
c gate 138 112 137 0
112 -138 0
137 -138 0
-112 -137 138 0
c gate 139 -112 -137 0
-112 -139 0
-137 -139 0
112 137 139 0
c gate 140 -138 -139 0
-138 -140 0
-139 -140 0
138 139 140 0
c gate 141 108 140 0
108 -141 0
140 -141 0
-108 -140 141 0
c gate 142 -108 -140 0
-108 -142 0
-140 -142 0
108 140 142 0
c gate 143 -123 135 0
-123 -143 0
135 -143 0
123 -135 143 0
c gate 144 -136 -143 0
-136 -144 0
-143 -144 0
136 143 144 0
c gate 145 -65 90 0
-65 -145 0
90 -145 0
65 -90 145 0
c gate 146 -91 -145 0
-91 -146 0
-145 -146 0
91 145 146 0
c gate 147 144 -146 0
144 -147 0
-146 -147 0
-144 146 147 0
c gate 148 -144 146 0
-144 -148 0
146 -148 0
144 -146 148 0
c gate 149 131 -133 0
131 -149 0
-133 -149 0
-131 133 149 0
c gate 150 -134 -149 0
-134 -150 0
-149 -150 0
134 149 150 0
c gate 151 -70 88 0
-70 -151 0
88 -151 0
70 -88 151 0
c gate 152 -89 -151 0
-89 -152 0
-151 -152 0
89 151 152 0
c gate 153 150 -152 0
150 -153 0
-152 -153 0
-150 152 153 0
c gate 154 -150 152 0
-150 -154 0
152 -154 0
150 -152 154 0
c gate 155 -73 -74 0
-73 -155 0
-74 -155 0
73 74 155 0
c gate 156 -130 -155 0
-130 -156 0
-155 -156 0
130 155 156 0
c gate 157 82 -129 0
82 -157 0
-129 -157 0
-82 129 157 0
c gate 158 -85 -157 0
-85 -158 0
-157 -158 0
85 157 158 0
c gate 159 155 158 0
155 -159 0
158 -159 0
-155 -158 159 0
c gate 160 -156 -159 0
-156 -160 0
-159 -160 0
156 159 160 0
c gate 161 -154 -160 0
-154 -161 0
-160 -161 0
154 160 161 0
c gate 162 -153 -161 0
-153 -162 0
-161 -162 0
153 161 162 0
c gate 163 -148 -162 0
-148 -163 0
-162 -163 0
148 162 163 0
c gate 164 -147 -163 0
-147 -164 0
-163 -164 0
147 163 164 0
c gate 165 -142 164 0
-142 -165 0
164 -165 0
142 -164 165 0
c gate 166 -141 -165 0
-141 -166 0
-165 -166 0
141 165 166 0
c gate 167 -100 -103 0
-100 -167 0
-103 -167 0
100 103 167 0
c gate 168 4 8 0
4 -168 0
8 -168 0
-4 -8 168 0
c gate 169 -50 168 0
-50 -169 0
168 -169 0
50 -168 169 0
c gate 170 -8 52 0
-8 -170 0
52 -170 0
8 -52 170 0
c gate 171 -169 -170 0
-169 -171 0
-170 -171 0
169 170 171 0
c gate 172 -167 -171 0
-167 -172 0
-171 -172 0
167 171 172 0
c gate 173 167 171 0
167 -173 0
171 -173 0
-167 -171 173 0
c gate 174 -172 -173 0
-172 -174 0
-173 -174 0
172 173 174 0
c gate 175 106 174 0
106 -175 0
174 -175 0
-106 -174 175 0
c gate 176 -106 -174 0
-106 -176 0
-174 -176 0
106 174 176 0
c gate 177 -175 -176 0
-175 -177 0
-176 -177 0
175 176 177 0
c gate 178 112 136 0
112 -178 0
136 -178 0
-112 -136 178 0
c gate 179 -109 -121 0
-109 -179 0
-121 -179 0
109 121 179 0
c gate 180 -99 -179 0
-99 -180 0
-179 -180 0
99 179 180 0
c gate 181 169 -180 0
169 -181 0
-180 -181 0
-169 180 181 0
c gate 182 -169 180 0
-169 -182 0
180 -182 0
169 -180 182 0
c gate 183 -181 -182 0
-181 -183 0
-182 -183 0
181 182 183 0
c gate 184 -178 183 0
-178 -184 0
183 -184 0
178 -183 184 0
c gate 185 -177 -184 0
-177 -185 0
-184 -185 0
177 184 185 0
c gate 186 -166 -185 0
-166 -186 0
-185 -186 0
166 185 186 0
c gate 187 177 184 0
177 -187 0
184 -187 0
-177 -184 187 0
c gate 188 -172 -175 0
-172 -188 0
-175 -188 0
172 175 188 0
c gate 189 168 -181 0
168 -189 0
-181 -189 0
-168 181 189 0
c gate 190 -188 -189 0
-188 -190 0
-189 -190 0
188 189 190 0
c gate 191 -187 -190 0
-187 -191 0
-190 -191 0
187 190 191 0
c gate 192 -186 191 0
-186 -192 0
191 -192 0
186 -191 192 0
c gate 193 -166 192 0
-166 -193 0
192 -193 0
166 -192 193 0
c gate 194 -185 -187 0
-185 -194 0
-187 -194 0
185 187 194 0
c gate 195 -15 -18 0
-15 -195 0
-18 -195 0
15 18 195 0
c gate 196 -160 -195 0
-160 -196 0
-195 -196 0
160 195 196 0
c gate 197 -153 -196 0
-153 -197 0
-196 -197 0
153 196 197 0
c gate 198 -147 197 0
-147 -198 0
197 -198 0
147 -197 198 0
c gate 199 -142 198 0
-142 -199 0
198 -199 0
142 -198 199 0
c gate 200 -191 -199 0
-191 -200 0
-199 -200 0
191 199 200 0
c gate 201 166 200 0
166 -201 0
200 -201 0
-166 -200 201 0
c gate 202 -194 -201 0
-194 -202 0
-201 -202 0
194 201 202 0
c gate 203 -193 202 0
-193 -203 0
202 -203 0
193 -202 203 0
c PO
203 0
